30 61
29
6 18 17 36
2 12 0 49
10 7 13 54
4 23 0 24
4 1 0 47
7 7 23 0
11 4 2 57
6 5 4 28
7 2 10 28
6 11 11 43
10 19 0 5
11 5 17 28
2 4 4 24
7 5 4 43
2 4 28 29
7 12 16 0
7 13 10 30
6 3 19 33
6 10 4 33
9 16 16 12
1 4 1 0
10 4 6 24
6 24 10 0
9 9 2 48
2 1 0 4
8 5 2 0
5 3 25 33
7 25 23 36
5 21 25 7
